p cnf 30 45
-5 7 17 0
20 29 -25 0
17 -4 -27 0
-29 8 -15 0
24 8 27 0
-12 -29 -17 0
-26 -1 14 0
1 9 18 0
-11 -19 27 0
26 15 1 0
14 6 11 0
29 3 -17 0
-28 5 21 0
-8 -16 29 0
-23 -28 19 0
-15 12 29 0
-8 -15 -1 0
-30 22 3 0
-2 -16 12 0
-6 -25 10 0
6 13 -15 0
-21 -20 17 0
-15 -21 28 0
25 27 -2 0
-22 23 2 0
-2 9 -21 0
20 -12 26 0
12 -28 -22 0
7 -12 26 0
5 -3 25 0
27 -10 13 0
20 29 -9 0
-24 -7 -3 0
-20 -14 19 0
8 22 13 0
-28 3 -19 0
-11 -20 -8 0
22 25 -29 0
10 30 -21 0
13 6 14 0
-24 -29 -20 0
26 -18 4 0
11 -18 -22 0
-2 9 8 0
20 23 -2 0
